************************************************************************
file with basedata            : J1203_.BAS
initial value random generator: 717799506
************************************************************************
projects                      :  1
jobs (incl. supersource/sink ):  122
horizon                       :  606
RESOURCES
  - renewable                 :  4   R
  - nonrenewable              :  0   N
  - doubly constrained        :  0   D
************************************************************************
PROJECT INFORMATION:
pronr.  #jobs rel.date duedate tardcost  MPM-Time
    1    120      0       81        0       81
************************************************************************
PRECEDENCE RELATIONS:
jobnr.    #modes  #successors   successors
   1        1          3           2   3   4
   2        1          3           8  16  27
   3        1          1          25
   4        1          3           5   6  14
   5        1          3           7  10  23
   6        1          2          45  94
   7        1          3           9  11  12
   8        1          2          13  20
   9        1          3          17  51  55
  10        1          3          15  19 108
  11        1          3          21  28  95
  12        1          3          18  39  60
  13        1          3          15  22  33
  14        1          2          34 114
  15        1          1          26
  16        1          1          38
  17        1          3          19  40  92
  18        1          2          43  64
  19        1          3          32  84 118
  20        1          3          31  47  68
  21        1          1         113
  22        1          2          24  90
  23        1          2          29  64
  24        1          2          30  87
  25        1          3          53  75  76
  26        1          1          80
  27        1          3          35  46  82
  28        1          1         119
  29        1          2          37  85
  30        1          1          36
  31        1          1          41
  32        1          1          57
  33        1          1         109
  34        1          1          36
  35        1          2          88  97
  36        1          1          76
  37        1          1          50
  38        1          2          59  77
  39        1          1          44
  40        1          2          52  73
  41        1          3          42  79 104
  42        1          1          61
  43        1          1          98
  44        1          1          59
  45        1          1         115
  46        1          1          78
  47        1          3          48  49  63
  48        1          2          67  69
  49        1          1          54
  50        1          1         115
  51        1          2          70  96
  52        1          1          57
  53        1          2          83 117
  54        1          3          56  58 102
  55        1          1          62
  56        1          2          65 111
  57        1          2          93 119
  58        1          1          95
  59        1          3          66  70  86
  60        1          3          71  86  91
  61        1          2          72  74
  62        1          1         101
  63        1          1          82
  64        1          1          85
  65        1          2          79  83
  66        1          1          96
  67        1          1         101
  68        1          1         120
  69        1          1         110
  70        1          1          87
  71        1          3          99 100 120
  72        1          1          82
  73        1          1          81
  74        1          1         116
  75        1          2         115 121
  76        1          1          92
  77        1          1         119
  78        1          1          92
  79        1          1         103
  80        1          1          85
  81        1          1         106
  82        1          1          96
  83        1          1          95
  84        1          1          89
  85        1          1         100
  86        1          1          88
  87        1          1         116
  88        1          1         109
  89        1          1         113
  90        1          1         116
  91        1          1         107
  92        1          1          97
  93        1          1         117
  94        1          1         109
  95        1          1          98
  96        1          1          99
  97        1          1         108
  98        1          1         103
  99        1          1         108
 100        1          1         101
 101        1          2         103 111
 102        1          1         105
 103        1          1         110
 104        1          1         105
 105        1          1         107
 106        1          1         113
 107        1          1         112
 108        1          1         110
 109        1          1         111
 110        1          1         112
 111        1          1         112
 112        1          1         118
 113        1          1         114
 114        1          1         117
 115        1          1         120
 116        1          1         118
 117        1          1         121
 118        1          1         121
 119        1          1         122
 120        1          1         122
 121        1          1         122
 122        1          0        
************************************************************************
REQUESTS/DURATIONS:
jobnr. mode duration  R 1  R 2  R 3  R 4
------------------------------------------------------------------------
  1      1     0       0    0    0    0
  2      1     5       0    9    0    0
  3      1    10       0    1    0    0
  4      1     3       0    8    0    0
  5      1     9       0    0    0    8
  6      1     2       0    0   10    0
  7      1     3       0    0    0    3
  8      1     1       0    0    6    0
  9      1     7       0    0    3    0
 10      1     3       0    6    0    0
 11      1     3       0    0    5    0
 12      1     2       0    1    0    0
 13      1     4       0    0    9    0
 14      1     4       0    3    0    0
 15      1     5       0    1    0    0
 16      1     4       0    0    1    0
 17      1     2       0    9    0    0
 18      1     4       0    0    0    8
 19      1     1       0    8    0    0
 20      1     2       7    0    0    0
 21      1     9       2    0    0    0
 22      1     9       5    0    0    0
 23      1     4      10    0    0    0
 24      1    10       0    0    0   10
 25      1     2       0    1    0    0
 26      1     3      10    0    0    0
 27      1     1      10    0    0    0
 28      1     4       0    0    0    2
 29      1     7       0   10    0    0
 30      1     6       0    9    0    0
 31      1     5       0    0    1    0
 32      1     2       0    0    0   10
 33      1     8       7    0    0    0
 34      1     1      10    0    0    0
 35      1     5       0    0    0    9
 36      1     8       0    8    0    0
 37      1     8       0   10    0    0
 38      1     2       0    0    0    8
 39      1     7       0    0    0    7
 40      1     1       0    5    0    0
 41      1     4       0    0    4    0
 42      1     2       0    0    0    1
 43      1     1       0    0    5    0
 44      1     1       5    0    0    0
 45      1    10       0    8    0    0
 46      1    10       0    0    9    0
 47      1     3       0    3    0    0
 48      1     9      10    0    0    0
 49      1    10       0    0    2    0
 50      1     8       1    0    0    0
 51      1     9       0    0    6    0
 52      1     6       1    0    0    0
 53      1     3       2    0    0    0
 54      1     2       3    0    0    0
 55      1     1       0    1    0    0
 56      1     9       0    4    0    0
 57      1     3       0    0    2    0
 58      1     2       9    0    0    0
 59      1     9       0    0    0    9
 60      1     8       0    1    0    0
 61      1     2       0    1    0    0
 62      1     2       0    8    0    0
 63      1     5       0    5    0    0
 64      1     7       0    1    0    0
 65      1     7       0    0   10    0
 66      1     5       0    0    8    0
 67      1     9       0    3    0    0
 68      1     7       0    0    2    0
 69      1     7       4    0    0    0
 70      1     2       0   10    0    0
 71      1     8       3    0    0    0
 72      1    10      10    0    0    0
 73      1     2       0    8    0    0
 74      1     3       0    0    2    0
 75      1     1       0    0    9    0
 76      1     7       0    0    0    4
 77      1    10       0    0    0    6
 78      1     8       0    8    0    0
 79      1     9       0    9    0    0
 80      1     9       0    5    0    0
 81      1     2       0    9    0    0
 82      1     7       0    0    9    0
 83      1     3       0    2    0    0
 84      1     3       0    0    8    0
 85      1     6       0    0    5    0
 86      1     5       0    0   10    0
 87      1     9       0    0   10    0
 88      1     7       0    0    0   10
 89      1     1       0    0    0    9
 90      1     3       0    0    0    6
 91      1     9       0    7    0    0
 92      1     3       0    0    0    4
 93      1    10       0    0    3    0
 94      1     3       0    0    4    0
 95      1     6       0    8    0    0
 96      1     9      10    0    0    0
 97      1     3       0    0    8    0
 98      1     9       7    0    0    0
 99      1     6       0    0    6    0
100      1     7       6    0    0    0
101      1     7       9    0    0    0
102      1     3       0    0    0    1
103      1     7       0    0    0    9
104      1     1       0    0    5    0
105      1     5       0    0    0    8
106      1     4       0    0    0   10
107      1     4       0    0    6    0
108      1     1       2    0    0    0
109      1     3       9    0    0    0
110      1     8       4    0    0    0
111      1     3       0    0    0    1
112      1     2       0    0    0    7
113      1     5       0    0    2    0
114      1     6       2    0    0    0
115      1     5       0    0    0    3
116      1     6       0    9    0    0
117      1     4       0    0    8    0
118      1     5       0    3    0    0
119      1     7       0    3    0    0
120      1     1       0    9    0    0
121      1     2       0    0    2    0
122      1     0       0    0    0    0
************************************************************************
RESOURCEAVAILABILITIES:
  R 1  R 2  R 3  R 4
   17   22   26   19
************************************************************************
